
Gurobi 8.1.1 (win64, Python) logging started 04/04/19 21:07:13

Academic license - for non-commercial use only

Gurobi 8.1.1 (win64, Python) logging started 04/04/19 21:32:51

Academic license - for non-commercial use only

Gurobi 8.1.1 (win64, Python) logging started 04/05/19 15:38:56

Academic license - for non-commercial use only
